c File: rg50_0.1.col
c 
c This is a randomly generated graph G(n, p) where: 
c n (num vertices): 50
c p (edge probability): 0.1
c 
c Graph Properties: 
c Order: 50
c Size: 124
c Density: 0.10122449
c Maximum Degree: 10
c Minimum Degree: 2
c Average Degree: 4.96
c 
p edge 50 124
e 1 36
e 1 37
e 1 47
e 2 3
e 2 4
e 2 16
e 2 26
e 3 8
e 3 18
e 3 20
e 3 27
e 3 29
e 3 44
e 4 14
e 4 17
e 5 6
e 5 13
e 5 25
e 5 31
e 5 35
e 5 41
e 6 13
e 6 34
e 6 39
e 6 45
e 7 18
e 7 26
e 7 31
e 7 41
e 7 48
e 7 50
e 8 12
e 8 15
e 8 21
e 8 24
e 8 45
e 9 26
e 9 32
e 9 40
e 10 11
e 10 19
e 10 26
e 10 32
e 10 43
e 10 46
e 11 22
e 11 23
e 11 26
e 11 27
e 11 36
e 12 22
e 12 33
e 12 40
e 13 24
e 13 27
e 13 29
e 13 35
e 13 44
e 14 27
e 14 31
e 14 40
e 15 17
e 16 25
e 16 39
e 16 41
e 16 42
e 17 29
e 17 33
e 18 28
e 18 39
e 18 43
e 18 48
e 19 34
e 19 38
e 19 41
e 20 28
e 20 36
e 20 39
e 20 48
e 20 49
e 21 25
e 21 29
e 21 45
e 22 33
e 22 43
e 22 48
e 23 47
e 25 43
e 25 46
e 26 29
e 26 30
e 26 32
e 27 30
e 27 37
e 27 41
e 28 30
e 28 47
e 28 48
e 29 35
e 29 37
e 30 49
e 31 43
e 31 44
e 31 50
e 32 44
e 33 36
e 33 47
e 34 50
e 35 44
e 35 45
e 36 39
e 37 39
e 37 46
e 37 49
e 38 43
e 38 46
e 40 42
e 43 46
e 43 47
e 43 49
e 43 50
e 44 48
e 46 50
e 47 49
